Academic license - for non-commercial use only
Optimize a model with 20 rows, 100 columns and 200 nonzeros
Model has 2610 quadratic objective terms
Variable types: 0 continuous, 100 integer (0 binary)
Coefficient statistics:
  Matrix range     [1e+00, 1e+00]
  Objective range  [0e+00, 0e+00]
  QObjective range [4e+00, 2e+02]
  Bounds range     [1e+00, 1e+00]
  RHS range        [1e+00, 1e+00]
Found heuristic solution: objective 484.0000000
Presolve time: 0.00s
Presolved: 20 rows, 100 columns, 200 nonzeros
Presolved model has 2710 quadratic objective terms
Variable types: 0 continuous, 100 integer (100 binary)

Root relaxation: objective -2.293880e+03, 120 iterations, 0.00 seconds

    Nodes    |    Current Node    |     Objective Bounds      |     Work
 Expl Unexpl |  Obj  Depth IntInf | Incumbent    BestBd   Gap | It/Node Time

H    0     0                     480.0000000    0.00000   100%     -    0s
     0     0    0.00000    0   97  480.00000    0.00000   100%     -    0s
H    0     0                     456.0000000    0.00000   100%     -    0s
H    0     0                     442.0000000    0.00000   100%     -    0s
     0     0    0.00000    0   97  442.00000    0.00000   100%     -    0s
H    0     0                     414.0000000    0.00000   100%     -    0s
H    0     0                     410.0000000    0.00000   100%     -    0s
H    0     2                     390.0000000    0.00000   100%     -    0s
     0     2    0.00000    0   97  390.00000    0.00000   100%     -    0s
* 6081  3035              61     386.0000000   69.66224  82.0%   9.7    0s
* 8006  3875              57     374.0000000   80.39676  78.5%   9.3    0s
H 8129  3776                     358.0000000   80.39676  77.5%   9.3    0s
 36149 11814  225.18013   50   65  358.00000  168.15527  53.0%   8.2    5s
H36253 11285                     352.0000000  168.15527  52.2%   8.2    7s
*39251 11450              70     340.0000000  168.15527  50.5%   9.4    8s
 56510 11082  249.58921   58   31  340.00000  181.91399  46.5%  10.1   10s

Cutting planes:
  Gomory: 2
  Implied bound: 8
  MIR: 16
  StrongCG: 1
  Flow cover: 42
  Inf proof: 9
  Zero half: 1

Explored 117302 nodes (1094609 simplex iterations) in 11.65 seconds
Thread count was 12 (of 12 available processors)

Solution count 10: 340 352 358 ... 456

Optimal solution found (tolerance 1.00e-04)
Best objective 3.400000000000e+02, best bound 3.400000000000e+02, gap 0.0000%
 12.961525 seconds (1.07 M allocations: 51.430 MiB, 0.09% gc time)


 Solution : Optimal


Objective : 340.0
